(declare-datatype Nat ((S (proj1-S Nat)) (Z)))
(declare-datatype list ((nil) (cons (head Nat) (tail list))))
(define-fun-rec
  length
  ((x list)) Nat
  (match x
    ((nil Z)
     ((cons y xs) (S (length xs))))))
(define-fun-rec
  ++
  ((x list) (y list)) list
  (match x
    ((nil y)
     ((cons z xs) (cons z (++ xs y))))))
(assert
  (not
    (forall ((xs list) (ys list))
      (= (length (++ xs ys)) (length xs)))))
(check-sat)
